NAME : n60w120.001.536.tour
COMMENT : Length = 536
COMMENT : Found by LKH [Keld Helsgaun] Tue Nov  7 19:39:17 2017
TYPE : TOUR
DIMENSION : 61
TOUR_SECTION
1
7
13
39
16
43
23
60
59
33
10
49
35
57
18
20
52
8
14
26
5
6
53
31
45
51
19
48
32
47
17
42
11
30
12
40
28
24
29
3
44
22
34
55
4
2
58
36
27
46
9
56
37
25
50
38
21
41
61
54
15
-1
EOF
